c ---- [ banner ] ------------------------------------------------------------
c
c Kissat SAT Solver
c 
c Copyright (c) 2021-2024 Armin Biere University of Freiburg
c Copyright (c) 2019-2021 Armin Biere Johannes Kepler University Linz
c 
c Version 4.0.1 43f02cf3e992cb44653b35e5cb26f93281552ae0
c gcc (Ubuntu 13.2.0-23ubuntu4) 13.2.0 -W -Wall -O3 -DNDEBUG
c Thu Sep 12 12:27:46 CEST 2024 Linux abryzen9 6.8.0-41-generic x86_64
c
c ---- [ parsing ] -----------------------------------------------------------
c
c opened and reading DIMACS file:
c
c   /data/artifact/AMulet2.0_artifact/exp4/cnf_mfs_64/64_64_U1_DT_BK_Multgen_mfs.cnf
c
c parsed 'p cnf 34598 135297' header
c closing input after reading 2633111 bytes (3 MB)
c finished parsing after 0.02 seconds
c
c ---- [ options ] -----------------------------------------------------------
c
c --stable=0                       (different from default '1')
c
c ---- [ solving ] -----------------------------------------------------------
c
c  seconds switched rate     size/glue tier1  binary           remaining
c         MB reductions conflicts size  tier2     irredundant
c          level restarts redundant glue  trail           variables
c
c *  0.02 10 0 0 0  0 0   0   0 0.0 0 0 0 0 0% 27260 108035 34595 100%
c (  0.03 12 0 0 0  0 0   0   0 0.0 0 0 0 0 0% 27260 108035 34595 100%
c .  0.04 12 0 0 0  0 0   0   0 0.0 0 0 0 0 0% 27256 108035 34595 100%
c c  0.09 21 0 0 0  0 0   0   0 0.0 0 0 0 0 0% 34046 94455 31200 90%
c d  0.10 21 0 0 0  0 0   0   0 0.0 0 0 0 0 0% 27256 94455 31200 90%
c =  0.14 21 0 0 0  0 0   0   0 0.0 0 0 0 0 0% 27744 94455 30956 89%
c d  0.14 21 0 0 0  0 0   0   0 0.0 0 0 0 0 0% 27256 94455 30956 89%
c f  0.20 19 0 0 0  0 0   0   0 0.0 0 0 0 0 0% 30269 89659 32739 95%
c e  0.29 27 0 0 0  0 0   0   0 0.0 0 0 0 0 0% 8418 103768 21608 62%
c )  0.29 27 0 0 0  0 0   0   0 0.0 0 0 0 0 0% 8418 103768 21608 62%
c {  0.30 27 0 0 0  0 0   0   0 0.0 0 0 2 6 0% 8418 103768 21608 62%
c -  0.47 27 322 0 1 213 44 1000 755 4.8 29 6 4 10 25% 8446 103768 21608 62%
c -  0.68 27 318 0 2 375 42 2001 1458 4.4 30 7 3 11 27% 8464 103768 21608 62%
c c  0.86 21 316 0 2 472 43 2502 1930 4.5 33 7 3 12 29% 8469 103745 21602 62%
c d  0.86 21 316 0 2 472 43 2502 1930 4.5 33 7 3 12 29% 8457 103745 21602 62%
c u  0.87 21 316 0 2 472 43 2502 1536 4.5 33 7 3 12 29% 8459 103745 21602 62%
c v  0.89 21 316 0 2 472 43 2502 1266 4.5 33 7 3 12 29% 8459 103745 21602 62%
c w  0.91 25 316 0 2 472 43 2502 1266 4.5 33 7 3 12 29% 8459 103745 21602 62%
c =  1.00 27 316 0 2 472 43 2502 1266 4.5 33 7 3 12 29% 9035 103745 21314 62%
c d  1.00 27 316 0 2 472 43 2502 1254 4.5 33 7 3 12 29% 8453 103745 21314 62%
c
c  seconds   switched   rate       size/glue tier1     binary          remaining
c         MB  reductions conflicts       size  tier2      irredundant
c           level restarts    redundant    glue    trail          variables
c
c f  1.03 27 316 0 2 472 43 2502 1254 4.5 33 7 3 12 29% 9222 102315 21975 64%
c u  1.05 27 316 0 2 472 43 2502 1202 4.5 33 7 3 12 29% 9222 102315 21975 64%
c v  1.06 27 316 0 2 472 43 2502 1154 4.5 33 7 3 12 29% 9222 102315 21975 64%
c w  1.12 27 316 0 2 472 43 2502 1150 4.5 33 7 3 12 29% 9222 102315 21975 64%
c =  1.18 27 316 0 2 472 43 2502 1150 4.5 33 7 3 12 29% 9770 102315 21701 63%
c d  1.19 27 316 0 2 472 43 2502 1146 4.5 33 7 3 12 29% 9136 102315 21701 63%
c t  1.20 27 316 0 2 472 43 2502 1146 4.5 33 7 3 12 29% 9134 102315 21701 63%
c f  1.22 27 316 0 2 472 43 2502 1146 4.5 33 7 3 12 29% 9758 101379 22013 64%
c -  1.40 27 329 0 3 558 40 3416 1714 4.7 33 7 3 12 31% 9766 101379 22013 64%
c -  1.69 27 309 0 4 694 34 5148 2811 4.4 31 7 3 11 30% 9805 101379 22013 64%
c -  2.03 27 304 0 5 898 33 7148 3905 4.6 32 7 2 10 29% 9855 101379 22013 64%
c c  2.15 27 323 0 5 960 32 7706 4423 4.6 31 7 2 10 29% 9861 101273 21984 64%
c d  2.16 27 323 0 5 960 32 7706 4410 4.6 31 7 2 10 29% 9781 101273 21972 64%
c u  2.17 27 323 0 5 960 32 7706 3666 4.6 31 7 2 10 29% 9792 101273 21972 64%
c v  2.20 27 323 0 5 960 32 7706 3131 4.6 31 7 2 10 29% 9792 101273 21972 64%
c w  2.23 27 323 0 5 960 32 7706 3129 4.6 31 7 2 10 29% 9792 101273 21972 64%
c x  2.25 27 323 0 5 960 32 7706 3129 4.6 31 7 2 10 29% 9792 100436 21972 64%
c =  2.34 27 323 0 5 960 32 7706 3129 4.6 31 7 2 10 29% 10706 100436 21515 62%
c d  2.35 27 323 0 5 960 32 7706 3120 4.6 31 7 2 10 29% 9684 100436 21515 62%
c t  2.36 27 323 0 5 960 32 7706 3120 4.6 31 7 2 10 29% 9676 100436 21515 62%
c
c  seconds   switched   rate       size/glue tier1     binary          remaining
c         MB  reductions conflicts       size  tier2       irredundant
c           level restarts    redundant    glue    trail          variables
c
c f  2.39 27 323 0 5 960 32 7706 3120 4.6 31 7 2 10 29% 11396 97854 22375 65%
c u  2.45 27 323 0 5 960 32 7706 2926 4.6 31 7 2 10 29% 11398 97854 22375 65%
c v  2.47 27 323 0 5 960 32 7706 2839 4.6 31 7 2 10 29% 11398 97854 22375 65%
c w  2.50 27 323 0 5 960 32 7706 2833 4.6 31 7 2 10 29% 11398 97854 22375 65%
c x  2.52 27 323 0 5 960 32 7706 2833 4.6 31 7 2 10 29% 11398 91742 22375 65%
c =  2.62 27 323 0 5 960 32 7706 2833 4.6 31 7 2 10 29% 11902 91740 22123 64%
c d  2.63 27 323 0 5 960 32 7706 2830 4.6 31 7 2 10 29% 11336 91740 22123 64%
c t  2.64 27 323 0 5 960 32 7706 2830 4.6 31 7 2 10 29% 11313 91740 22123 64%
c f  2.68 27 323 0 5 960 32 7706 2830 4.6 31 7 2 10 29% 11392 91618 22163 64%
c -  2.90 27 323 0 6 1076 32 9384 3583 4.5 30 7 2 10 28% 11470 91618 22163 64%
c o  3.03 27 326 0 6 1137 32 10008 4170 4.5 31 7 2 10 28% 11477 91618 22163 64%
c -  3.37 27 345 0 7 1294 33 11833 4927 4.2 34 8 2 9 28% 11550 91618 22163 64%
c s  3.46 27 337 0 7 1304 32 12505 5464 4.2 33 8 2 9 28% 11573 90619 22163 64%
c e  3.54 27 337 0 7 1304 32 12505 5464 4.2 33 8 2 9 28% 9976 91536 20659 60%
c s  3.55 27 337 0 7 1304 32 12505 5464 4.2 33 8 2 9 28% 9976 90392 20659 60%
c e  3.56 27 337 0 7 1304 32 12505 5464 4.2 33 8 2 9 28% 9973 90395 20654 60%
c ^  3.56 27 337 0 7 1304 32 12505 5464 4.2 33 8 2 9 28% 9973 90395 20654 60%
c -  3.80 28 356 0 8 1387 32 14478 5780 4.2 33 8 2 9 28% 10015 90395 20654 60%
c d  3.98 28 355 0 8 1444 31 15782 6858 4.1 32 8 2 9 28% 9705 90395 20432 59%
c u  4.01 28 355 0 8 1444 31 15782 5613 4.1 32 8 2 9 28% 9713 90395 20432 59%
c
c  seconds   switched    rate        size/glue tier1    binary         remaining
c         MB  reductions   conflicts       size  tier2     irredundant
c           level  restarts     redundant    glue   trail         variables
c
c v  4.04 28 355 0 8 1444 31 15782 4836 4.1 32 8 2 9 28% 9714 90395 20432 59%
c w  4.08 28 355 0 8 1444 31 15782 4833 4.1 32 8 2 9 28% 9714 90395 20432 59%
c x  4.11 28 355 0 8 1444 31 15782 4833 4.1 32 8 2 9 28% 9714 89474 20432 59%
c =  4.24 28 355 0 8 1444 31 15782 4833 4.1 32 8 2 9 28% 11524 89474 19527 56%
c d  4.24 28 355 0 8 1444 31 15782 4702 4.1 32 8 2 9 28% 9364 89474 19527 56%
c t  4.25 28 355 0 8 1444 31 15782 4702 4.1 32 8 2 9 28% 9353 89474 19527 56%
c f  4.29 28 355 0 8 1444 31 15782 4702 4.1 32 8 2 9 28% 9355 89470 19528 56%
c c  4.34 28 355 0 8 1444 31 15782 4702 4.1 32 8 2 9 28% 9361 89458 19525 56%
c d  4.34 28 355 0 8 1444 31 15782 4702 4.1 32 8 2 9 28% 9355 89458 19525 56%
c u  4.36 28 355 0 8 1444 31 15782 4344 4.1 32 8 2 9 28% 9357 89458 19525 56%
c v  4.37 28 355 0 8 1444 31 15782 4227 4.1 32 8 2 9 28% 9357 89458 19525 56%
c w  4.42 28 355 0 8 1444 31 15782 4203 4.1 32 8 2 9 28% 9357 89458 19525 56%
c x  4.44 28 355 0 8 1444 31 15782 4203 4.1 32 8 2 9 28% 9358 88756 19525 56%
c =  4.57 28 355 0 8 1444 31 15782 4203 4.1 32 8 2 9 28% 10668 88756 18870 55%
c d  4.57 28 355 0 8 1444 31 15782 4147 4.1 32 8 2 9 28% 9122 88756 18870 55%
c -  4.84 28 347 0 9 1545 30 17306 4751 4.0 31 8 2 9 29% 9140 88756 18870 55%
c o  5.18 28 355 0 9 1698 29 20023 7128 4.0 31 8 2 9 28% 9185 88756 18870 55%
c -  5.26 28 354 0 10 1743 29 20307 6494 4.1 31 8 2 9 28% 9186 88756 18870 55%
c -  5.75 28 339 0 11 1992 29 23469 8109 4.1 31 8 2 9 28% 9237 88756 18870 55%
c s  5.85 28 339 0 11 2039 29 25005 9446 4.0 30 7 2 9 27% 9261 87321 18870 55%
c
c  seconds   switched     rate        size/glue tier1    binary         remaining
c         MB   reductions   conflicts       size  tier2     irredundant
c           level   restarts     redundant    glue   trail         variables
c
c e  5.95 28 339 0 11 2039 29 25005 9446 4.0 30 7 2 9 27% 8225 90287 16383 47%
c s  5.96 28 339 0 11 2039 29 25005 9446 4.0 30 7 2 9 27% 8226 86958 16383 47%
c e  5.99 28 339 0 11 2039 29 25005 9446 4.0 30 7 2 9 27% 8218 86976 16373 47%
c ^  5.99 28 339 0 11 2039 29 25005 9446 4.0 30 7 2 9 27% 8218 86976 16373 47%
c -  6.20 27 323 0 12 2111 28 26785 8167 3.9 29 7 2 8 28% 8250 86975 16373 47%
c d  6.21 27 322 0 12 2120 27 26908 8217 3.9 29 7 2 8 27% 8132 86973 16295 47%
c u  6.24 27 322 0 12 2120 27 26908 6801 3.9 29 7 2 8 27% 8147 86973 16295 47%
c v  6.27 27 322 0 12 2120 27 26908 5753 3.9 29 7 2 8 27% 8147 86973 16295 47%
c w  6.27 27 322 0 12 2120 27 26908 5750 3.9 29 7 2 8 27% 8147 86973 16295 47%
c x  6.33 27 322 0 12 2120 27 26908 5750 3.9 29 7 2 8 27% 8148 84574 16295 47%
c =  6.49 27 322 0 12 2120 27 26908 5750 3.9 29 7 2 8 27% 10420 84574 15159 44%
c d  6.50 27 322 0 12 2120 27 26908 5506 3.9 29 7 2 8 27% 8044 84574 15159 44%
c t  6.51 27 322 0 12 2120 27 26908 5506 3.9 29 7 2 8 27% 8028 84574 15159 44%
c f  6.56 27 322 0 12 2120 27 26908 5506 3.9 29 7 2 8 27% 8021 84542 15168 44%
c u  6.58 27 322 0 12 2120 27 26908 5102 3.9 29 7 2 8 27% 8023 84542 15168 44%
c v  6.60 27 322 0 12 2120 27 26908 4974 3.9 29 7 2 8 27% 8023 84542 15168 44%
c w  6.61 27 322 0 12 2120 27 26908 4972 3.9 29 7 2 8 27% 8023 84542 15168 44%
c x  6.68 27 322 0 12 2120 27 26908 4972 3.9 29 7 2 8 27% 8023 78283 15168 44%
c =  6.82 27 322 0 12 2120 27 26908 4972 3.9 29 7 2 8 27% 8677 78277 14841 43%
c d  6.83 27 322 0 12 2120 27 26908 4960 3.9 29 7 2 8 27% 8004 78277 14839 43%
c
c  seconds   switched     rate        size/glue tier1    binary         remaining
c         MB   reductions   conflicts       size  tier2     irredundant
c           level   restarts     redundant    glue   trail         variables
c
c -  7.17 27 297 0 13 2298 26 30250 6847 3.7 27 7 2 8 27% 8054 78274 14839 43%
c -  7.62 27 285 0 14 2545 25 33855 8983 3.6 26 7 2 8 28% 8084 78274 14839 43%
c -  7.98 27 279 0 15 2752 25 37596 10732 3.5 25 7 2 8 27% 8148 78274 14839 43%
c o  8.28 27 274 0 15 2924 25 40040 12823 3.5 25 7 2 8 27% 8198 78274 14839 43%
c c  8.51 27 272 0 15 3020 24 41245 13883 3.5 26 7 2 8 27% 8309 77645 14716 43%
c d  8.52 27 272 0 15 3020 24 41245 13576 3.5 26 7 2 8 27% 8006 77645 14678 42%
c u  8.55 27 272 0 15 3020 24 41245 11439 3.5 26 7 2 8 27% 8021 77645 14678 42%
c v  8.59 27 272 0 15 3020 24 41245 10518 3.5 26 7 2 8 27% 8021 77645 14678 42%
c w  8.62 27 272 0 15 3020 24 41245 10518 3.5 26 7 2 8 27% 8021 77645 14678 42%
c x  8.67 27 272 0 15 3020 24 41245 10517 3.5 26 7 2 8 27% 8021 73739 14678 42%
c =  8.85 27 272 0 15 3020 24 41245 10517 3.5 26 7 2 8 27% 9337 73739 14020 41%
c d  8.85 27 272 0 15 3020 24 41245 10146 3.5 26 7 2 8 27% 7916 73739 14019 41%
c t  8.86 27 272 0 15 3020 24 41245 10146 3.5 26 7 2 8 27% 7915 73739 14019 41%
c u  8.91 27 272 0 15 3020 24 41245 9427 3.5 26 7 2 8 27% 7915 73739 14019 41%
c v  8.95 27 272 0 15 3020 24 41245 8787 3.5 26 7 2 8 27% 7916 73739 14019 41%
c w  9.00 27 272 0 15 3020 24 41245 8780 3.5 26 7 2 8 27% 7916 73739 14019 41%
c x  9.04 27 272 0 15 3020 24 41245 8780 3.5 26 7 2 8 27% 7916 72954 14019 41%
c =  9.19 27 272 0 15 3020 24 41245 8780 3.5 26 7 2 8 27% 8354 72940 13799 40%
c d  9.20 27 272 0 15 3020 24 41245 8689 3.5 26 7 2 8 27% 7882 72940 13799 40%
c -  9.26 27 272 0 16 3059 25 41468 7715 3.5 25 7 2 7 27% 7881 72940 13799 40%
c
c  seconds   switched     rate        size/glue tier1    binary         remaining
c         MB   reductions   conflicts       size  tier2     irredundant
c           level   restarts     redundant    glue   trail         variables
c
c -  9.80 27 265 0 17 3439 25 45468 9815 3.5 26 7 2 7 28% 7899 72937 13799 40%
c - 10.30 27 260 0 18 3812 25 49592 11934 3.4 25 7 2 7 28% 7905 72937 13799 40%
c s 10.46 27 261 0 18 3918 24 52107 14018 3.4 25 7 2 7 27% 7924 68431 13799 40%
c e 10.52 27 261 0 18 3918 24 52107 14018 3.4 25 7 2 7 27% 6940 70183 12862 37%
c s 10.53 27 261 0 18 3918 24 52107 14018 3.4 25 7 2 7 27% 6940 69509 12862 37%
c e 10.54 27 261 0 18 3918 24 52107 14018 3.4 25 7 2 7 27% 6933 69537 12850 37%
c ^ 10.54 27 261 0 18 3918 24 52107 14018 3.4 25 7 2 7 27% 6933 69537 12850 37%
c - 10.68 27 257 0 19 4040 24 53836 12263 3.3 25 7 2 7 27% 6935 69537 12850 37%
c - 11.11 27 245 0 20 4325 23 58194 14132 3.3 24 7 2 6 26% 6968 69537 12850 37%
c c 11.23 27 243 0 20 4396 23 58898 14735 3.3 24 7 2 6 26% 7021 69289 12809 37%
c d 11.24 27 243 0 20 4396 23 58898 14591 3.3 24 7 2 6 26% 6939 69289 12809 37%
c u 11.28 27 243 0 20 4396 23 58898 12125 3.3 24 7 2 6 26% 6954 69289 12809 37%
c v 11.32 27 243 0 20 4396 23 58898 10807 3.3 24 7 2 6 26% 6960 69289 12809 37%
c w 11.35 27 243 0 20 4396 23 58898 10776 3.3 24 7 2 6 26% 6960 69289 12809 37%
c x 11.39 27 243 0 20 4396 23 58898 10776 3.3 24 7 2 6 26% 6960 69178 12809 37%
c d 11.59 27 243 0 20 4396 23 58898 10766 3.3 24 7 2 6 26% 6950 69178 12804 37%
c f 11.63 27 243 0 20 4396 23 58898 10766 3.3 24 7 2 6 26% 6948 69175 12805 37%
c c 11.66 27 243 0 20 4396 23 58898 10754 3.3 24 7 2 6 26% 6953 69151 12802 37%
c d 11.67 27 243 0 20 4396 23 58898 10754 3.3 24 7 2 6 26% 6947 69151 12802 37%
c u 11.70 27 243 0 20 4396 23 58898 10318 3.3 24 7 2 6 26% 6952 69151 12802 37%
c
c  seconds   switched     rate         size/glue tier1    binary         remaining
c         MB   reductions   conflicts        size  tier2     irredundant
c           level   restarts      redundant    glue   trail         variables
c
c v 11.72 27 243 0 20 4396 23 58898 10009 3.3 24 7 2 6 26% 6952 69151 12802 37%
c w 11.75 27 243 0 20 4396 23 58898 9993 3.3 24 7 2 6 26% 6952 69151 12802 37%
c d 11.76 27 243 0 20 4396 23 58898 9990 3.3 24 7 2 6 26% 6948 69151 12800 37%
c - 12.31 27 238 0 21 4809 24 62666 11644 3.3 25 8 2 6 27% 6989 69151 12800 37%
c - 12.80 27 230 0 22 5153 23 67249 13814 3.3 24 8 2 6 26% 7042 69151 12800 37%
c o 13.24 27 226 0 22 5488 23 70070 16261 3.3 25 8 2 6 26% 7058 69151 12800 37%
c - 13.39 27 223 0 23 5601 23 71939 14153 3.3 25 8 1 6 26% 7074 69151 12800 37%
c - 14.05 27 219 0 24 6091 23 76734 15115 3.3 25 8 1 6 26% 7122 69151 12800 37%
c d 14.48 27 217 0 24 6434 23 80004 17353 3.3 25 8 1 6 26% 7010 69151 12706 37%
c u 14.52 27 217 0 24 6434 23 80004 15333 3.3 25 8 1 6 26% 7039 69151 12706 37%
c v 14.58 27 217 0 24 6434 23 80004 12523 3.3 25 8 1 6 26% 7055 69151 12706 37%
c w 14.67 27 217 0 24 6434 23 80004 12522 3.3 25 8 1 6 26% 7055 69151 12706 37%
c x 14.74 27 217 0 24 6434 23 80004 12521 3.3 25 8 1 6 26% 7055 66849 12706 37%
c = 14.90 27 217 0 24 6434 23 80004 12521 3.3 25 8 1 6 26% 7125 66849 12671 37%
c d 14.91 27 217 0 24 6434 23 80004 12451 3.3 25 8 1 6 26% 7018 66849 12655 37%
c t 14.92 27 217 0 24 6434 23 80004 12451 3.3 25 8 1 6 26% 7011 66849 12655 37%
c c 14.96 27 217 0 24 6434 23 80004 12451 3.3 25 8 1 6 26% 7034 66745 12642 37%
c d 14.96 27 217 0 24 6434 23 80004 12407 3.3 25 8 1 6 26% 7008 66745 12642 37%
c u 14.99 27 217 0 24 6434 23 80004 11906 3.3 25 8 1 6 26% 7017 66745 12642 37%
c v 15.03 27 217 0 24 6434 23 80004 11333 3.3 25 8 1 6 26% 7022 66745 12642 37%
c
c  seconds   switched     rate         size/glue tier1    binary         remaining
c         MB   reductions   conflicts        size  tier2     irredundant
c           level   restarts      redundant    glue   trail         variables
c
c w 15.13 27 217 0 24 6434 23 80004 11261 3.3 25 8 1 6 26% 7022 66745 12642 37%
c x 15.19 27 217 0 24 6434 23 80004 11261 3.3 25 8 1 6 26% 7022 66570 12642 37%
c = 15.49 27 217 0 24 6434 23 80004 11261 3.3 25 8 1 6 26% 7602 66562 12351 36%
c d 15.50 27 217 0 24 6434 23 80004 10814 3.3 25 8 1 6 26% 6923 66562 12351 36%
c - 15.60 27 218 0 25 6469 23 81633 10209 3.2 25 8 1 6 26% 6927 66562 12351 36%
c - 16.19 27 211 0 26 6930 23 86633 12448 3.2 25 8 1 6 26% 6946 66562 12351 36%
c - 16.94 27 209 0 27 7481 23 91733 14655 3.2 25 8 1 5 27% 6972 66558 12351 36%
c s 17.32 27 208 0 27 7764 22 95863 18063 3.2 25 8 1 5 27% 7008 65104 12351 36%
c e 17.39 27 208 0 27 7764 22 95863 18063 3.2 25 8 1 5 27% 4648 71254 11069 32%
c s 17.40 27 208 0 27 7764 22 95863 18063 3.2 25 8 1 5 27% 4649 71077 11069 32%
c e 17.41 27 208 0 27 7764 22 95863 18063 3.2 25 8 1 5 27% 4643 71131 11046 32%
c ^ 17.41 27 208 0 27 7764 22 95863 18063 3.2 25 8 1 5 27% 4643 71131 11046 32%
c - 17.59 27 208 0 28 7910 23 96931 13013 3.2 25 8 1 5 27% 4645 71131 11046 32%
c - 18.44 27 201 0 29 8586 23 102222 15189 3.2 25 8 1 5 27% 4660 71131 11046 32%
c c 18.83 27 199 0 29 8864 23 104684 17347 3.2 25 8 1 5 27% 4715 70844 11006 32%
c d 18.83 27 199 0 29 8864 23 104684 17034 3.2 25 8 1 5 27% 4635 70844 11006 32%
c u 18.86 27 199 0 29 8864 23 104684 15024 3.2 25 8 1 5 27% 4646 70844 11006 32%
c v 18.92 27 199 0 29 8864 23 104684 12375 3.2 25 8 1 5 27% 4651 70844 11006 32%
c w 19.08 27 199 0 29 8864 23 104684 11967 3.2 25 8 1 5 27% 4651 70844 11006 32%
c = 19.44 27 199 0 29 8864 23 104684 11967 3.2 25 8 1 5 27% 4783 70844 10940 32%
c
c  seconds   switched     rate          size/glue tier1    binary         remaining
c         MB   reductions   conflicts         size  tier2     irredundant
c           level   restarts       redundant    glue   trail         variables
c
c d 19.45 27 199 0 29 8864 23 104684 11851 3.2 25 8 1 5 27% 4624 70844 10939 32%
c t 19.45 27 199 0 29 8864 23 104684 11851 3.2 25 8 1 5 27% 4620 70844 10939 32%
c u 19.55 27 199 0 29 8864 23 104684 11333 3.2 25 8 1 5 27% 4620 70844 10939 32%
c v 19.58 27 199 0 29 8864 23 104684 10845 3.2 25 8 1 5 27% 4621 70844 10939 32%
c w 19.72 27 199 0 29 8864 23 104684 10709 3.2 25 8 1 5 27% 4621 70844 10939 32%
c x 19.78 27 199 0 29 8864 23 104684 10708 3.2 25 8 1 5 27% 4621 70827 10939 32%
c - 20.54 27 197 0 30 9171 23 107607 11506 3.1 25 8 1 5 28% 4630 70827 10939 32%
c o 20.90 27 195 0 30 9411 23 110073 13753 3.1 25 8 1 5 28% 4632 70827 10939 32%
c - 21.43 27 193 0 31 9844 23 113084 14080 3.1 25 8 1 5 28% 4633 70827 10939 32%
c - 22.26 27 189 0 32 10368 23 118652 16141 3.1 25 8 1 5 28% 4646 70827 10939 32%
c - 23.41 27 186 0 33 11094 23 124308 17793 3.1 26 8 1 5 29% 4658 70827 10939 32%
c - 24.40 27 181 0 34 11709 23 130052 19160 3.1 27 9 1 5 29% 4671 70827 10939 32%
c d 24.78 27 178 0 34 11930 23 132986 21883 3.1 27 9 1 5 29% 4652 70827 10927 32%
c u 24.83 27 178 0 34 11930 23 132986 19639 3.1 27 9 1 5 29% 4661 70827 10927 32%
c v 24.91 27 178 0 34 11930 23 132986 16042 3.1 27 9 1 5 29% 4667 70827 10927 32%
c w 25.12 27 178 0 34 11930 23 132986 15483 3.1 27 9 1 5 29% 4667 70827 10927 32%
c d 25.13 27 178 0 34 11930 23 132986 15477 3.1 27 9 1 5 29% 4661 70827 10924 32%
c t 25.14 27 178 0 34 11930 23 132986 15477 3.1 27 9 1 5 29% 4653 70827 10924 32%
c c 25.17 27 178 0 34 11930 23 132986 15477 3.1 27 9 1 5 29% 4677 70707 10910 32%
c d 25.18 27 178 0 34 11930 23 132986 15423 3.1 27 9 1 5 29% 4649 70707 10910 32%
c
c  seconds   switched      rate          size/glue tier1    binary         remaining
c         MB   reductions    conflicts         size  tier2     irredundant
c           level   restarts        redundant    glue   trail         variables
c
c u 25.21 27 178 0 34 11930 23 132986 14913 3.1 27 9 1 5 29% 4652 70707 10910 32%
c v 25.26 27 178 0 34 11930 23 132986 14250 3.1 27 9 1 5 29% 4657 70707 10910 32%
c w 25.43 27 178 0 34 11930 23 132986 14074 3.1 27 9 1 5 29% 4657 70707 10910 32%
c d 25.94 27 178 0 34 11930 23 132986 14073 3.1 27 9 1 5 29% 4653 70707 10908 32%
c t 25.94 27 178 0 34 11930 23 132986 14073 3.1 27 9 1 5 29% 4651 70707 10908 32%
c - 26.20 27 176 0 35 12051 22 135882 14029 3.1 27 9 1 5 29% 4654 70707 10908 32%
c - 27.10 27 172 0 36 12627 22 141798 16372 3.0 26 9 1 5 29% 4671 70706 10908 32%
c - 28.11 27 168 0 37 13252 22 147798 18303 3.0 26 9 1 5 29% 4683 70706 10908 32%
c i 28.24 27 167 0 37 13321 22 149261 19588 3.0 26 9 1 5 29% 4697 70706 10904 32%
c i 28.58 27 166 0 37 13516 21 151834 21932 3.0 26 9 1 5 29% 4716 70705 10903 32%
c i 28.59 27 166 0 37 13522 21 151987 22070 3.0 26 9 1 5 29% 4718 70705 10887 31%
c i 28.59 27 166 0 37 13522 21 151988 22070 3.0 26 9 1 5 29% 4718 70705 10885 31%
c i 28.59 27 166 0 37 13522 21 152003 22068 3.0 26 9 1 5 29% 4723 70705 10883 31%
c i 28.68 27 165 0 37 13570 21 153005 22983 3.0 26 9 1 5 29% 4729 70705 10880 31%
c i 28.72 27 165 0 37 13598 21 153402 23336 3.0 26 9 1 5 29% 4735 70705 10879 31%
c - 28.80 27 164 0 38 13634 21 153880 19288 3.0 26 9 1 5 29% 4763 70705 10879 31%
c i 28.84 27 164 0 38 13656 21 154293 19638 3.0 26 9 1 5 29% 4774 70705 10877 31%
c i 29.03 27 162 0 38 13756 21 156641 21789 2.9 26 9 1 5 29% 4778 70705 10875 31%
c s 29.17 27 161 0 38 13832 21 158049 23086 2.9 26 9 1 5 29% 4769 70099 10875 31%
c e 29.26 27 161 0 38 13832 21 158049 23086 2.9 26 9 1 5 29% 2469 79847 9366 27%
c
c  seconds   switched      rate          size/glue tier1    binary        remaining
c         MB   reductions    conflicts         size  tier2     irredundant
c           level   restarts        redundant    glue   trail        variables
c
c 2 29.26 27 161 0 38 13832 21 158049 23086 2.9 26 9 1 5 29% 2467 79847 9366 27%
c s 29.28 27 161 0 38 13832 21 158049 23086 2.9 26 9 1 5 29% 2468 78948 9366 27%
c e 29.29 27 161 0 38 13832 21 158049 23086 2.9 26 9 1 5 29% 2460 79020 9337 27%
c ^ 29.29 27 161 0 38 13832 21 158049 23086 2.9 26 9 1 5 29% 2460 79020 9337 27%
c i 29.45 27 160 0 38 13935 21 159181 17517 2.9 26 9 1 5 29% 2465 79019 9336 27%
c i 29.51 27 160 0 38 13965 20 159832 18133 2.9 25 9 1 5 29% 2466 79019 9335 27%
c i 29.52 27 160 0 38 13975 20 160012 18283 2.9 25 9 1 5 29% 2470 79019 9334 27%
c - 29.53 27 160 0 39 13975 20 160044 15142 2.9 25 9 1 5 29% 2480 78995 9334 27%
c i 29.53 27 160 0 39 13975 20 160050 15143 2.9 25 9 1 5 29% 2481 78995 9333 27%
c o 29.54 27 160 0 39 13976 20 160197 15269 2.9 25 9 1 5 29% 2482 78995 9333 27%
c i 29.58 27 159 0 39 14016 20 160910 15862 2.9 25 9 1 5 29% 2491 78995 9332 27%
c i 29.61 27 158 0 39 14045 20 161782 16613 2.9 25 9 1 5 29% 2499 78995 9331 27%
c i 29.73 27 156 0 39 14175 20 164394 18832 2.9 25 9 1 5 29% 2520 78993 9330 27%
c c 29.79 27 155 0 39 14216 20 165025 19382 2.9 25 9 1 5 29% 2525 78692 9296 27%
c d 29.80 27 155 0 39 14216 20 165025 19025 2.9 25 9 1 5 29% 2465 78687 9296 27%
c d 29.80 27 155 0 39 14216 20 165025 19023 2.9 25 9 1 5 29% 2461 78687 9294 27%
c u 29.84 27 155 0 39 14216 20 165025 17190 2.9 25 9 1 5 29% 2480 78687 9294 27%
c v 29.91 27 155 0 39 14216 20 165025 14039 2.9 25 9 1 5 29% 2485 78687 9293 27%
c w 29.99 27 155 0 39 14216 20 165025 13937 2.9 25 9 1 5 29% 2484 78687 9293 27%
c x 30.07 27 155 0 39 14216 20 165025 13929 2.9 25 9 1 5 29% 2487 77483 9292 27%
c
c  seconds   switched      rate          size/glue tier1    binary        remaining
c         MB   reductions    conflicts         size  tier2     irredundant
c           level   restarts        redundant    glue   trail        variables
c
c d 30.08 27 155 0 39 14216 20 165025 13877 2.9 25 9 1 5 29% 2481 77461 9285 27%
c d 30.08 27 155 0 39 14216 20 165025 13877 2.9 25 9 1 5 29% 2473 77461 9281 27%
c t 30.08 27 155 0 39 14216 20 165025 13877 2.9 25 9 1 5 29% 2469 77461 9281 27%
c f 30.17 27 155 0 39 14216 20 165025 13877 2.9 25 9 1 5 29% 2480 77150 9297 27%
c u 30.22 27 155 0 39 14216 20 165025 13495 2.9 25 9 1 5 29% 2471 77150 9296 27%
c v 30.26 27 155 0 39 14216 20 165025 12990 2.9 25 9 1 5 29% 2474 77150 9296 27%
c w 30.38 27 155 0 39 14216 20 165025 12498 2.9 25 9 1 5 29% 2474 77150 9296 27%
c t 30.39 27 155 0 39 14216 20 165025 12492 2.9 25 9 1 5 29% 2476 77144 9296 27%
c i 30.40 27 155 0 39 14216 20 165025 12492 2.9 25 9 1 5 29% 2476 77144 9296 27%
c i 30.40 27 155 0 39 14232 20 165243 12673 2.9 25 9 1 5 29% 2479 77144 9295 27%
c i 30.41 27 155 0 39 14232 20 165421 12779 2.9 25 9 1 5 29% 2486 77144 9294 27%
c i 30.42 27 155 0 39 14240 20 165666 12987 2.9 25 9 1 5 28% 2488 77144 9293 27%
c i 30.42 27 155 0 39 14241 20 165782 13092 2.9 25 9 1 5 28% 2488 77144 9291 27%
c - 30.43 27 154 0 40 14257 19 166288 10948 2.9 25 9 1 5 28% 2475 77142 9291 27%
c i 30.43 27 154 0 40 14265 19 166506 11127 2.9 25 9 1 5 28% 2478 77142 9290 27%
c i 30.45 27 153 0 40 14276 19 167020 11503 2.9 25 9 1 5 28% 2491 77142 9289 27%
c i 30.45 27 153 0 40 14276 19 167156 11560 2.9 25 9 1 5 28% 2497 77142 9285 27%
c i 30.45 27 153 0 40 14276 19 167361 11679 2.9 25 9 1 5 28% 2506 77142 9284 27%
c i 30.45 27 152 0 40 14276 19 167399 11698 2.9 25 9 1 5 28% 2509 77142 9283 27%
c } 30.45 27 152 0 40 14276 19 167424 11710 2.9 25 9 1 5 28% 2511 77142 9279 27%
c
c  seconds   switched      rate          size/glue tier1    binary        remaining
c         MB   reductions    conflicts         size  tier2     irredundant
c           level   restarts        redundant    glue   trail        variables
c
c 0 30.45 27 152 0 40 14276 19 167424 11710 2.9 25 9 1 5 28% 2511 77142 9279 27%
c
c ---- [ result ] ------------------------------------------------------------
c
s UNSATISFIABLE
c
c ---- [ profiling ] ---------------------------------------------------------
c
c          21.76   71.45 %  search
c          21.76   71.45 %  focused
c           8.40   27.57 %  simplify
c           7.95   26.11 %  probe
c           3.27   10.75 %  vivify
c           3.16   10.38 %  sweep
c           0.61    1.99 %  eliminate
c           0.55    1.79 %  factor
c           0.48    1.57 %  congruence
c           0.36    1.19 %  substitute
c           0.25    0.83 %  preprocess
c           0.15    0.51 %  reduce
c           0.10    0.34 %  subsume
c           0.09    0.30 %  transitive
c           0.09    0.29 %  fastel
c           0.03    0.11 %  backbone
c           0.02    0.07 %  parse
c           0.02    0.07 %  lucky
c =============================================
c          30.45  100.00 %  total
c
c ---- [ statistics ] --------------------------------------------------------
c
c chronological:                         5050                3 %  conflicts
c conflicts:                           167424             5498.85 per second
c congruent:                             3701               11 %  variables
c decisions:                          3339758               19.95 per conflict
c eliminated:                           18929               55 %  variables
c factored:                              3683               11 %  variables
c fast_eliminated:                      11131               59 %  eliminated
c fast_strengthened:                        7                0 %  per strengthened
c fast_subsumed:                           56                0 %  per subsumed
c iterations:                              26                0 %  variables
c propagations:                     146468649          4810598    per second
c reductions:                              40             4186    interval
c reordered:                                6            27904    interval
c restarts:                             14276               12    interval
c strengthened:                          4410                0 %  checks
c substituted:                          10008               29 %  variables
c subsumed:                             15114                0 %  checks
c switched:                                 0                0    interval
c vivified:                             81940               15 %  checks
c
c ---- [ glue usage ] --------------------------------------------------------
c
c focused glue 1 used 273847 clauses 58.58% accumulated 58.58% tier1
c focused glue 2 used  92918 clauses 19.87% accumulated 78.45%
c focused glue 3 used  28900 clauses  6.18% accumulated 84.63%
c focused glue 4 used  16668 clauses  3.57% accumulated 88.20%
c focused glue 5 used  11608 clauses  2.48% accumulated 90.68% tier2
c
c ---- [ resources ] ---------------------------------------------------------
c
c maximum-resident-set-size:         28889088 bytes         28 MB
c process-time:                            30s              30.45 seconds
c
c ---- [ shutting down ] -----------------------------------------------------
c
c exit 20
